DIMENSION: 16
EDGE_WEIGHT_TYPE: EXPLICIT
EDGE_WEIGHT_FORMAT: FULL_MATRIX
EDGE_WEIGHT_SECTION:
32767 65 32767 53 32767 32767 48 32767 29 70 32767 74 32767 32767 32767 32767 
65 32767 32767 59 78 32767 32767 62 32767 32767 32767 18 32767 32767 32767 32767 
32767 32767 32767 32767 32767 32767 32767 32767 32767 32767 22 90 14 32767 24 32767 
53 59 32767 32767 32767 41 32767 32767 48 32767 65 32767 77 32767 32767 61 
32767 78 32767 32767 32767 32767 10 32767 31 87 32767 32767 32767 54 32767 32767 
32767 32767 32767 41 32767 32767 32767 32767 20 32767 32767 36 88 32767 32767 32767 
48 32767 32767 32767 10 32767 32767 32767 32767 32767 32767 32767 17 32767 81 92 
32767 62 32767 32767 32767 32767 32767 32767 32767 32767 32767 39 32767 32767 32767 32767 
29 32767 32767 48 31 20 32767 32767 32767 32767 32767 54 74 32767 38 11 
70 32767 32767 32767 87 32767 32767 32767 32767 32767 32767 32767 32767 32767 32767 32767 
32767 32767 22 65 32767 32767 32767 32767 32767 32767 32767 32767 32767 32767 32767 32767 
74 18 90 32767 32767 36 32767 39 54 32767 32767 32767 32767 32767 32767 32767 
32767 32767 14 77 32767 88 17 32767 74 32767 32767 32767 32767 99 32767 12 
32767 32767 32767 32767 54 32767 32767 32767 32767 32767 32767 32767 99 32767 32767 32767 
32767 32767 24 32767 32767 32767 81 32767 38 32767 32767 32767 32767 32767 32767 27 
32767 32767 32767 61 32767 32767 92 32767 11 32767 32767 32767 12 32767 27 32767 
EOF